NAME : cgl_28.2833.tour
COMMENT : Length = 2833
COMMENT : Found by LKH-3 [Keld Helsgaun] Thu Jun 26 21:26:48 2025
TYPE : TOUR
DIMENSION : 29
TOUR_SECTION
9
10
11
7
12
4
1
2
5
26
28
27
25
24
23
21
13
18
14
15
20
16
17
19
29
3
22
6
8
-1
EOF
